
#######################################################################
#
#                 Cambridge Crystallographic Data Centre
#                                CCDC
#
#######################################################################
#
# If this CIF has been generated from an entry in the Cambridge
# Structural Database, then it will include bibliographic, chemical,
# crystal, experimental, refinement or atomic coordinate data resulting
# from the CCDC's data processing and validation procedures.
#
#######################################################################

data_CSD_CIF_ABABEM
_audit_creation_date 2011-11-29
_audit_creation_method CSD-ConQuest-V1
_database_code_CSD ABABEM
_database_code_depnum_ccdc_archive 'CCDC 850649'
_chemical_formula_sum 'C6 H8 N2 O2 S1'
_chemical_formula_moiety
;
C6 H8 N2 O2 S1
;
_journal_coeditor_code "IUCr LX2196"
_journal_coden_Cambridge 1370
_journal_volume 67
_journal_year 2011
_journal_page_first o2771
_journal_name_full 'Acta Crystallogr.,Sect.E:Struct.Rep.Online '
loop_
_publ_author_name
"Bin-bin Xi"
"Lu Shi"
"Hai Huang"
"Qin Wang"
"Hong-Jun Zhu"
_chemical_name_systematic
;
Tetrahydro[1,3,4]thiadiazolo[3,4-a]pyridazine-1,3-dione
;
_chemical_name_common
;
8-Thia-1,6-diazabicyclo[4.3.0]nonane-7,9-dione
;
_cell_volume    759.171
_exptl_crystal_colour 'colorless'
_exptl_crystal_density_diffrn 1.507
_exptl_crystal_description 'block'
_diffrn_ambient_temperature 293
#These two values have been output from a single CSD field.
_refine_ls_R_factor_gt 0.044
_refine_ls_wR_factor_gt 0.044
_symmetry_cell_setting triclinic
_symmetry_space_group_name_H-M 'P -1'
_symmetry_Int_Tables_number 2
loop_
_symmetry_equiv_pos_site_id
_symmetry_equiv_pos_as_xyz
1 x,y,z
2 -x,-y,-z
_cell_length_a 7.8400(16)
_cell_length_b 10.464(2)
_cell_length_c 10.514(2)
_cell_angle_alpha 63.84(3)
_cell_angle_beta 79.62(3)
_cell_angle_gamma 89.42(3)
_cell_formula_units_Z 4
loop_
_atom_type_symbol
_atom_type_radius_bond
C 0.68
H 0.23
N 0.68
O 0.68
S 1.02
loop_
_atom_site_label
_atom_site_type_symbol
_atom_site_fract_x
_atom_site_fract_y
_atom_site_fract_z
S1 S -0.09731(11) 0.82576(8) 0.04086(8)
O1 O -0.3185(3) 0.5944(3) 0.1791(3)
O2 O 0.2479(3) 0.8734(2) -0.0219(2)
N1 N -0.0292(2) 0.5625(2) 0.1507(2)
N2 N 0.1318(3) 0.6432(2) 0.1083(2)
C1 C 0.2837(3) 0.5721(3) 0.0768(3)
H1 H 0.38920 0.63000 0.05910
H2 H 0.28030 0.56040 -0.00920
C2 C 0.2842(4) 0.4278(3) 0.2034(3)
H3 H 0.30270 0.44040 0.28600
H4 H 0.37890 0.37710 0.17910
C3 C 0.1134(4) 0.3408(3) 0.2418(3)
H5 H 0.10020 0.32050 0.16230
H6 H 0.11370 0.25050 0.32610
C4 C -0.0370(4) 0.4199(3) 0.2726(3)
H7 H -0.14560 0.36690 0.28780
H8 H -0.03260 0.42900 0.35990
C5 C -0.1691(3) 0.6421(3) 0.1356(3)
C6 C 0.1243(4) 0.7859(3) 0.0365(3)
S2 S 0.16047(9) 0.00770(8) 0.62686(8)
O3 O 0.3930(3) -0.1856(2) 0.6988(2)
O4 O 0.1494(2) 0.2796(2) 0.5788(2)
N3 N 0.4698(2) 0.0396(2) 0.6615(2)
N4 N 0.3934(3) 0.1675(2) 0.6431(2)
C7 C 0.5149(3) 0.2948(3) 0.5815(3)
H9 H 0.45340 0.37490 0.58370
H10 H 0.56480 0.31870 0.48170
C8 C 0.6568(4) 0.2672(3) 0.6669(3)
H11 H 0.60830 0.25670 0.76290
H12 H 0.74300 0.34830 0.62030
C9 C 0.7431(3) 0.1341(3) 0.6786(3)
H13 H 0.82980 0.11580 0.73840
H14 H 0.80150 0.14810 0.58330
C10 C 0.6102(3) 0.0070(3) 0.7438(3)
H15 H 0.66550 -0.07560 0.74180
H16 H 0.56280 -0.01530 0.84370
C11 C 0.3614(3) -0.0634(3) 0.6686(3)
C12 C 0.2314(3) 0.1752(3) 0.6121(3)
#END
